
Gurobi 9.1.1 (mac64, gurobi_cl) logging started Mon Feb 22 10:37:54 2021

Academic license - for non-commercial use only - expires 2021-04-06
Using license file /Users/agnese/gurobi.lic
Set parameter LogFile to value gurobi.log

Gurobi Optimizer version 9.1.1 build v9.1.1rc0 (mac64)
Copyright (c) 2020, Gurobi Optimization, LLC

Read LP format model from file /Users/agnese/Documents/KTH-Work/GitHub_repositories/KTH-dESA/GLUCOSE/results/2Degree2060/2Degree2060+Materials+Food_modified2/GLUCOSE_2Degree2060+Materials+Food_modified2.lp
Reading time = 0.48 seconds
cost: 55289 rows, 45900 columns, 520298 nonzeros
Thread count: 2 physical cores, 4 logical processors, using up to 4 threads
Optimize a model with 55289 rows, 45900 columns and 520298 nonzeros
Model fingerprint: 0xa87757bc
Coefficient statistics:
  Matrix range     [2e-08, 6e+03]
  Objective range  [7e-08, 4e+11]
  Bounds range     [0e+00, 0e+00]
  RHS range        [1e-04, 1e+06]
Warning: Model contains large objective coefficients
         Consider reformulating model or setting NumericFocus parameter
         to avoid numerical issues.

Concurrent LP optimizer: dual simplex and barrier
Showing barrier log only...

Presolve removed 29765 rows and 27983 columns
Presolve time: 0.24s
Presolved: 25524 rows, 18039 columns, 357812 nonzeros

Ordering time: 1.29s

Barrier statistics:
 AA' NZ     : 1.322e+06
 Factor NZ  : 9.115e+06 (roughly 100 MBytes of memory)
 Factor Ops : 8.667e+09 (less than 1 second per iteration)
 Threads    : 1

                  Objective                Residual
Iter       Primal          Dual         Primal    Dual     Compl     Time
   0   5.03240352e+20 -2.73631781e+17  9.31e+08 2.08e+12  3.47e+16     3s
   1   2.66896189e+20 -3.97907672e+17  9.16e+08 1.98e+12  3.39e+16     4s
   2   3.80658746e+20 -1.21007260e+18  8.48e+08 1.39e+12  3.36e+16     5s
   3   1.57397365e+20 -2.96394555e+18  2.42e+08 2.81e+11  1.28e+16     6s
   4   3.18055647e+19 -2.72196839e+18  4.80e+07 1.10e+10  2.86e+15     8s
   5   3.53733156e+18 -2.06884453e+18  5.27e+06 2.38e+09  3.47e+14     9s
   6   1.37168717e+18 -1.17125419e+18  2.06e+06 4.73e+08  1.38e+14    11s
   7   1.25021719e+18 -1.01291145e+18  1.89e+06 3.87e+08  1.24e+14    12s
   8   6.21513650e+17 -6.57012439e+17  8.99e+05 1.65e+08  6.09e+13    12s
   9   1.04177501e+17 -2.68258350e+17  1.49e+05 2.54e+07  1.31e+13    13s
  10   3.63789810e+16 -9.04605574e+16  5.18e+04 6.04e+06  4.43e+12    14s
  11   9.06075469e+15 -2.07661603e+16  1.26e+04 8.31e+05  1.09e+12    15s
  12   5.08797235e+15 -6.44872745e+15  7.21e+03 1.85e+05  4.97e+11    16s
  13   9.01129009e+14 -3.19696221e+15  1.23e+03 6.57e+04  1.27e+11    16s
  14   2.19142218e+14 -7.10342037e+14  2.61e+02 4.05e+03  2.73e+10    17s
  15   9.91208472e+13 -3.02379061e+14  1.02e+02 1.34e+03  1.11e+10    18s
  16   5.14709025e+13 -2.03681998e+14  4.29e+01 8.25e+02  6.60e+09    19s
  17   2.55916451e+13 -1.00373193e+14  1.10e+01 3.43e+02  3.15e+09    20s
  18   9.97350769e+12 -3.95278022e+13  2.65e+00 1.06e+02  1.16e+09    20s
  19   1.66007477e+11 -5.01224958e+12  2.00e-02 3.21e+00  1.08e+08    21s
  20   1.74311566e+10 -3.40625293e+11  9.71e-09 5.96e-02  7.43e+06    22s
  21   3.33807178e+09 -4.00446206e+10  3.05e-08 3.42e-03  9.00e+05    23s
  22   1.11089812e+09 -3.46023677e+09  5.86e-09 4.88e-04  9.48e+04    24s
  23   6.05113049e+08 -1.35754796e+07  4.03e-09 4.88e-04  1.28e+04    25s
  24   5.24712874e+08  4.18508282e+08  1.84e-08 2.44e-04  2.20e+03    26s
  25   5.14207930e+08  5.04472165e+08  1.48e-08 2.44e-04  2.02e+02    27s
  26   5.10755602e+08  5.10021584e+08  1.86e-08 2.44e-04  1.52e+01    28s
  27   5.10642871e+08  5.10403685e+08  8.01e-09 2.44e-04  4.96e+00    28s
  28   5.10611596e+08  5.10479587e+08  4.91e-09 2.44e-04  2.74e+00    29s
  29   5.10574419e+08  5.10518252e+08  4.13e-09 2.44e-04  1.17e+00    30s
  30   5.10560572e+08  5.10524102e+08  1.04e-08 2.44e-04  7.56e-01    31s
  31   5.10552038e+08  5.10530545e+08  5.63e-08 2.44e-04  4.46e-01    31s
  32   5.10545769e+08  5.10533507e+08  3.37e-08 2.44e-04  2.54e-01    32s
  33   5.10543417e+08  5.10535213e+08  2.27e-08 2.44e-04  1.70e-01    33s
  34   5.10541276e+08  5.10536641e+08  1.27e-08 2.44e-04  9.61e-02    34s
  35   5.10540200e+08  5.10537373e+08  3.10e-07 2.44e-04  5.87e-02    35s
  36   5.10538939e+08  5.10538210e+08  3.46e-06 2.44e-04  1.52e-02    35s
  37   5.10538608e+08  5.10538333e+08  1.30e-06 2.44e-04  5.83e-03    36s
  38   5.10538486e+08  5.10538373e+08  2.03e-06 4.88e-04  2.44e-03    37s
  39   5.10538418e+08  5.10538399e+08  1.77e-07 2.44e-04  4.24e-04    38s
  40   5.10538403e+08  5.10538402e+08  2.11e-06 2.44e-04  3.44e-05    39s
  41   5.10538402e+08  5.10538402e+08  8.17e-08 2.44e-04  4.38e-06    40s
  42   5.10538402e+08  5.10538402e+08  4.44e-08 4.88e-04  6.32e-07    41s
  43   5.10538402e+08  5.10538402e+08  2.76e-07 4.88e-04  1.70e-07    42s
  44   5.10538402e+08  5.10538402e+08  2.98e-07 2.44e-04  4.66e-08    43s
  45   5.10538402e+08  5.10538402e+08  8.82e-08 4.88e-04  1.25e-09    44s

Barrier solved model in 45 iterations and 43.66 seconds
Optimal objective 5.10538402e+08

Crossover log...

    5428 DPushes remaining with DInf 1.5769414e-01                44s
       0 DPushes remaining with DInf 6.7073171e-02                44s

    3867 PPushes remaining with PInf 2.1625181e-03                44s
       0 PPushes remaining with PInf 0.0000000e+00                44s

  Push phase complete: Pinf 0.0000000e+00, Dinf 5.2057142e-01     44s

Iteration    Objective       Primal Inf.    Dual Inf.      Time
    6929    5.1053840e+08   0.000000e+00   5.205713e-01     44s
Extra simplex iterations after uncrush: 4
    7188    5.1053840e+08   0.000000e+00   0.000000e+00     45s

Solved with barrier
Solved in 7188 iterations and 44.58 seconds
Optimal objective  5.105384022e+08

No IIS available for current model

